n = 15
Q1 = [0 0 43 0 21 22 39 0 0 0 30 0 0 0 0; 0 0 0 0 0 0 0 5 0 0 0 0 49 0 30; 0 0 0 43 39 0 0 0 0 0 0 0 0 0 47; 0 0 0 0 27 44 34 45 17 0 10 0 30 13 18; 0 0 0 0 0 27 45 0 0 0 8 45 21 0 0; 0 0 0 0 0 0 0 10 0 0 30 0 0 0 0; 0 0 0 0 0 0 0 0 39 5 0 20 0 0 18; 0 0 0 0 0 0 0 0 26 0 0 0 22 42 48; 0 0 0 0 0 0 0 0 0 0 0 0 0 0 0; 0 0 0 0 0 0 0 0 0 0 39 0 39 27 0; 0 0 0 0 0 0 0 0 0 0 0 22 8 0 44; 0 0 0 0 0 0 0 0 0 0 0 0 27 0 41; 0 0 0 0 0 0 0 0 0 0 0 0 0 0 0; 0 0 0 0 0 0 0 0 0 0 0 0 0 0 0; 0 0 0 0 0 0 0 0 0 0 0 0 0 0 0]
Q2 = [0.0 0.0 1.0 0.0 30.0 45.0 9.0 0.0 0.0 0.0 7.0 0.0 0.0 0.0 0.0; 0.0 0.0 0.0 0.0 0.0 0.0 0.0 45.0 0.0 0.0 0.0 0.0 0.0 0.0 16.0; 0.0 0.0 0.0 4.0 8.0 0.0 0.0 0.0 0.0 0.0 0.0 0.0 0.0 0.0 2.0; 0.0 0.0 0.0 0.0 10.0 4.0 15.0 1.0 41.0 0.0 42.0 0.0 12.0 39.0 38.0; 0.0 0.0 0.0 0.0 0.0 22.0 2.0 0.0 0.0 0.0 46.0 2.0 40.0 0.0 0.0; 0.0 0.0 0.0 0.0 0.0 0.0 0.0 39.0 0.0 0.0 3.0 0.0 0.0 0.0 0.0; 0.0 0.0 0.0 0.0 0.0 0.0 0.0 0.0 2.0 46.0 0.0 30.0 0.0 0.0 46.0; 0.0 0.0 0.0 0.0 0.0 0.0 0.0 0.0 2.0 0.0 0.0 0.0 31.0 0.0 1.0; 0.0 0.0 0.0 0.0 0.0 0.0 0.0 0.0 0.0 0.0 0.0 0.0 0.0 0.0 0.0; 0.0 0.0 0.0 0.0 0.0 0.0 0.0 0.0 0.0 0.0 5.0 0.0 2.0 12.0 0.0; 0.0 0.0 0.0 0.0 0.0 0.0 0.0 0.0 0.0 0.0 0.0 27.0 45.0 0.0 2.0; 0.0 0.0 0.0 0.0 0.0 0.0 0.0 0.0 0.0 0.0 0.0 0.0 22.0 0.0 4.0; 0.0 0.0 0.0 0.0 0.0 0.0 0.0 0.0 0.0 0.0 0.0 0.0 0.0 0.0 0.0; 0.0 0.0 0.0 0.0 0.0 0.0 0.0 0.0 0.0 0.0 0.0 0.0 0.0 0.0 0.0; 0.0 0.0 0.0 0.0 0.0 0.0 0.0 0.0 0.0 0.0 0.0 0.0 0.0 0.0 0.0]
Q3 = [0 67 14 67 8 0 10 67 67 67 9 67 67 67 67; 0 0 67 67 67 67 67 14 67 67 67 67 5 67 6; 0 0 0 9 15 67 67 67 67 67 67 67 67 67 2; 0 0 0 0 10 7 10 11 5 67 15 67 3 3 6; 0 0 0 0 0 14 12 67 67 67 2 13 5 67 67; 0 0 0 0 0 0 67 5 67 67 47 67 67 67 67; 0 0 0 0 0 0 0 67 11 4 67 17 67 67 1; 0 0 0 0 0 0 0 0 62 67 67 67 8 2 9; 0 0 0 0 0 0 0 0 0 67 67 67 67 67 67; 0 0 0 0 0 0 0 0 0 0 19 67 20 13 67; 0 0 0 0 0 0 0 0 0 0 0 17 3 67 15; 0 0 0 0 0 0 0 0 0 0 0 0 17 67 0; 0 0 0 0 0 0 0 0 0 0 0 0 0 67 67; 0 0 0 0 0 0 0 0 0 0 0 0 0 0 67; 0 0 0 0 0 0 0 0 0 0 0 0 0 0 0]
